p cnf 151 607
1 2 3 4 5 6 7 8 9 10 11 12 13 14 0
123 124 125 126 127 128 129 130 131 132 133 134 135 0
-1 -15 0
-1 -32 0
-1 -61 0
-1 -77 0
-1 -136 0
-15 -32 0
-15 -61 0
-15 -77 0
-15 -136 0
-32 -61 0
-32 -77 0
-32 -136 0
-61 -77 0
-61 -136 0
-77 -136 0
-16 -33 0
-16 -45 0
-16 -62 0
-16 -78 0
-16 -94 0
-16 -108 0
-16 -123 0
-16 -137 0
-33 -45 0
-33 -62 0
-33 -78 0
-33 -94 0
-33 -108 0
-33 -123 0
-33 -137 0
-45 -62 0
-45 -78 0
-45 -94 0
-45 -108 0
-45 -123 0
-45 -137 0
-62 -78 0
-62 -94 0
-62 -108 0
-62 -123 0
-62 -137 0
-78 -94 0
-78 -108 0
-78 -123 0
-78 -137 0
-94 -108 0
-94 -123 0
-94 -137 0
-108 -123 0
-108 -137 0
-123 -137 0
-2 -17 0
-2 -46 0
-2 -63 0
-2 -79 0
-2 -109 0
-2 -138 0
-17 -46 0
-17 -63 0
-17 -79 0
-17 -109 0
-17 -138 0
-46 -63 0
-46 -79 0
-46 -109 0
-46 -138 0
-63 -79 0
-63 -109 0
-63 -138 0
-79 -109 0
-79 -138 0
-109 -138 0
-3 -18 0
-3 -34 0
-3 -47 0
-3 -64 0
-3 -80 0
-3 -95 0
-3 -110 0
-3 -124 0
-3 -139 0
-18 -34 0
-18 -47 0
-18 -64 0
-18 -80 0
-18 -95 0
-18 -110 0
-18 -124 0
-18 -139 0
-34 -47 0
-34 -64 0
-34 -80 0
-34 -95 0
-34 -110 0
-34 -124 0
-34 -139 0
-47 -64 0
-47 -80 0
-47 -95 0
-47 -110 0
-47 -124 0
-47 -139 0
-64 -80 0
-64 -95 0
-64 -110 0
-64 -124 0
-64 -139 0
-80 -95 0
-80 -110 0
-80 -124 0
-80 -139 0
-95 -110 0
-95 -124 0
-95 -139 0
-110 -124 0
-110 -139 0
-124 -139 0
-19 -35 0
-19 -48 0
-19 -65 0
-19 -81 0
-19 -96 0
-19 -111 0
-19 -125 0
-19 -140 0
-35 -48 0
-35 -65 0
-35 -81 0
-35 -96 0
-35 -111 0
-35 -125 0
-35 -140 0
-48 -65 0
-48 -81 0
-48 -96 0
-48 -111 0
-48 -125 0
-48 -140 0
-65 -81 0
-65 -96 0
-65 -111 0
-65 -125 0
-65 -140 0
-81 -96 0
-81 -111 0
-81 -125 0
-81 -140 0
-96 -111 0
-96 -125 0
-96 -140 0
-111 -125 0
-111 -140 0
-125 -140 0
-4 -20 0
-4 -36 0
-4 -49 0
-4 -66 0
-4 -82 0
-4 -97 0
-4 -112 0
-4 -126 0
-4 -141 0
-20 -36 0
-20 -49 0
-20 -66 0
-20 -82 0
-20 -97 0
-20 -112 0
-20 -126 0
-20 -141 0
-36 -49 0
-36 -66 0
-36 -82 0
-36 -97 0
-36 -112 0
-36 -126 0
-36 -141 0
-49 -66 0
-49 -82 0
-49 -97 0
-49 -112 0
-49 -126 0
-49 -141 0
-66 -82 0
-66 -97 0
-66 -112 0
-66 -126 0
-66 -141 0
-82 -97 0
-82 -112 0
-82 -126 0
-82 -141 0
-97 -112 0
-97 -126 0
-97 -141 0
-112 -126 0
-112 -141 0
-126 -141 0
-5 -21 0
-5 -50 0
-5 -67 0
-5 -83 0
-5 -98 0
-5 -113 0
-5 -127 0
-5 -142 0
-21 -50 0
-21 -67 0
-21 -83 0
-21 -98 0
-21 -113 0
-21 -127 0
-21 -142 0
-50 -67 0
-50 -83 0
-50 -98 0
-50 -113 0
-50 -127 0
-50 -142 0
-67 -83 0
-67 -98 0
-67 -113 0
-67 -127 0
-67 -142 0
-83 -98 0
-83 -113 0
-83 -127 0
-83 -142 0
-98 -113 0
-98 -127 0
-98 -142 0
-113 -127 0
-113 -142 0
-127 -142 0
-6 -22 0
-6 -37 0
-6 -51 0
-6 -68 0
-6 -84 0
-6 -99 0
-6 -114 0
-6 -128 0
-22 -37 0
-22 -51 0
-22 -68 0
-22 -84 0
-22 -99 0
-22 -114 0
-22 -128 0
-37 -51 0
-37 -68 0
-37 -84 0
-37 -99 0
-37 -114 0
-37 -128 0
-51 -68 0
-51 -84 0
-51 -99 0
-51 -114 0
-51 -128 0
-68 -84 0
-68 -99 0
-68 -114 0
-68 -128 0
-84 -99 0
-84 -114 0
-84 -128 0
-99 -114 0
-99 -128 0
-114 -128 0
-7 -23 0
-7 -38 0
-7 -52 0
-7 -69 0
-7 -85 0
-7 -100 0
-7 -115 0
-7 -129 0
-7 -143 0
-23 -38 0
-23 -52 0
-23 -69 0
-23 -85 0
-23 -100 0
-23 -115 0
-23 -129 0
-23 -143 0
-38 -52 0
-38 -69 0
-38 -85 0
-38 -100 0
-38 -115 0
-38 -129 0
-38 -143 0
-52 -69 0
-52 -85 0
-52 -100 0
-52 -115 0
-52 -129 0
-52 -143 0
-69 -85 0
-69 -100 0
-69 -115 0
-69 -129 0
-69 -143 0
-85 -100 0
-85 -115 0
-85 -129 0
-85 -143 0
-100 -115 0
-100 -129 0
-100 -143 0
-115 -129 0
-115 -143 0
-129 -143 0
-8 -24 0
-8 -53 0
-8 -70 0
-8 -86 0
-8 -101 0
-8 -116 0
-8 -130 0
-8 -144 0
-24 -53 0
-24 -70 0
-24 -86 0
-24 -101 0
-24 -116 0
-24 -130 0
-24 -144 0
-53 -70 0
-53 -86 0
-53 -101 0
-53 -116 0
-53 -130 0
-53 -144 0
-70 -86 0
-70 -101 0
-70 -116 0
-70 -130 0
-70 -144 0
-86 -101 0
-86 -116 0
-86 -130 0
-86 -144 0
-101 -116 0
-101 -130 0
-101 -144 0
-116 -130 0
-116 -144 0
-130 -144 0
-9 -25 0
-9 -39 0
-9 -54 0
-9 -87 0
-9 -102 0
-9 -117 0
-9 -131 0
-9 -145 0
-25 -39 0
-25 -54 0
-25 -87 0
-25 -102 0
-25 -117 0
-25 -131 0
-25 -145 0
-39 -54 0
-39 -87 0
-39 -102 0
-39 -117 0
-39 -131 0
-39 -145 0
-54 -87 0
-54 -102 0
-54 -117 0
-54 -131 0
-54 -145 0
-87 -102 0
-87 -117 0
-87 -131 0
-87 -145 0
-102 -117 0
-102 -131 0
-102 -145 0
-117 -131 0
-117 -145 0
-131 -145 0
-26 -40 0
-26 -55 0
-26 -71 0
-26 -88 0
-26 -103 0
-26 -118 0
-26 -146 0
-40 -55 0
-40 -71 0
-40 -88 0
-40 -103 0
-40 -118 0
-40 -146 0
-55 -71 0
-55 -88 0
-55 -103 0
-55 -118 0
-55 -146 0
-71 -88 0
-71 -103 0
-71 -118 0
-71 -146 0
-88 -103 0
-88 -118 0
-88 -146 0
-103 -118 0
-103 -146 0
-118 -146 0
-10 -27 0
-10 -56 0
-10 -72 0
-10 -89 0
-10 -104 0
-10 -119 0
-10 -147 0
-27 -56 0
-27 -72 0
-27 -89 0
-27 -104 0
-27 -119 0
-27 -147 0
-56 -72 0
-56 -89 0
-56 -104 0
-56 -119 0
-56 -147 0
-72 -89 0
-72 -104 0
-72 -119 0
-72 -147 0
-89 -104 0
-89 -119 0
-89 -147 0
-104 -119 0
-104 -147 0
-119 -147 0
-11 -28 0
-11 -41 0
-11 -57 0
-11 -73 0
-11 -90 0
-11 -105 0
-11 -120 0
-11 -132 0
-11 -148 0
-28 -41 0
-28 -57 0
-28 -73 0
-28 -90 0
-28 -105 0
-28 -120 0
-28 -132 0
-28 -148 0
-41 -57 0
-41 -73 0
-41 -90 0
-41 -105 0
-41 -120 0
-41 -132 0
-41 -148 0
-57 -73 0
-57 -90 0
-57 -105 0
-57 -120 0
-57 -132 0
-57 -148 0
-73 -90 0
-73 -105 0
-73 -120 0
-73 -132 0
-73 -148 0
-90 -105 0
-90 -120 0
-90 -132 0
-90 -148 0
-105 -120 0
-105 -132 0
-105 -148 0
-120 -132 0
-120 -148 0
-132 -148 0
-12 -29 0
-12 -42 0
-12 -58 0
-12 -74 0
-12 -91 0
-12 -106 0
-12 -121 0
-12 -133 0
-12 -149 0
-29 -42 0
-29 -58 0
-29 -74 0
-29 -91 0
-29 -106 0
-29 -121 0
-29 -133 0
-29 -149 0
-42 -58 0
-42 -74 0
-42 -91 0
-42 -106 0
-42 -121 0
-42 -133 0
-42 -149 0
-58 -74 0
-58 -91 0
-58 -106 0
-58 -121 0
-58 -133 0
-58 -149 0
-74 -91 0
-74 -106 0
-74 -121 0
-74 -133 0
-74 -149 0
-91 -106 0
-91 -121 0
-91 -133 0
-91 -149 0
-106 -121 0
-106 -133 0
-106 -149 0
-121 -133 0
-121 -149 0
-133 -149 0
-13 -30 0
-13 -43 0
-13 -59 0
-13 -75 0
-13 -92 0
-13 -107 0
-13 -134 0
-13 -150 0
-30 -43 0
-30 -59 0
-30 -75 0
-30 -92 0
-30 -107 0
-30 -134 0
-30 -150 0
-43 -59 0
-43 -75 0
-43 -92 0
-43 -107 0
-43 -134 0
-43 -150 0
-59 -75 0
-59 -92 0
-59 -107 0
-59 -134 0
-59 -150 0
-75 -92 0
-75 -107 0
-75 -134 0
-75 -150 0
-92 -107 0
-92 -134 0
-92 -150 0
-107 -134 0
-107 -150 0
-134 -150 0
-14 -31 0
-14 -44 0
-14 -60 0
-14 -76 0
-14 -93 0
-14 -122 0
-14 -135 0
-14 -151 0
-31 -44 0
-31 -60 0
-31 -76 0
-31 -93 0
-31 -122 0
-31 -135 0
-31 -151 0
-44 -60 0
-44 -76 0
-44 -93 0
-44 -122 0
-44 -135 0
-44 -151 0
-60 -76 0
-60 -93 0
-60 -122 0
-60 -135 0
-60 -151 0
-76 -93 0
-76 -122 0
-76 -135 0
-76 -151 0
-93 -122 0
-93 -135 0
-93 -151 0
-122 -135 0
-122 -151 0
-135 -151 0
